


































































































74 29 58 22 32 
46 13 63 69 65 
6 2 47 39 53 
34 23 48 0 26 
70 33 44 3 28 
10 64 75 30 
68 67 41 38 12 
8 5 45 20 37 
50 57 21 27 31 
16 76 56 40 24 49 
42 54 15 1 66 
71 14 55 4 61 
25 36 51 18 52 
43 9 19 11 
7 17 35 59 
73 60 72 62 
